
Gurobi 10.0.3 (linux64, gurobi_cl) logging started Fri Nov 10 20:48:35 2023

Set parameter Username
Set parameter TimeLimit to value 3600
Set parameter LogFile to value "RCPSP_1897.log"
Set parameter Threads to value 32
Academic license - for non-commercial use only - expires 2024-10-30
Using license file /home/jrivera6/gurobi-licenses/v1003/compute-0-34/gurobi.lic

Gurobi Optimizer version 10.0.3 build v10.0.3rc0 (linux64)
Copyright (c) 2023, Gurobi Optimization, LLC

Read MPS format model from file RCPSP_1897.mps
Reading time = 0.14 seconds
RCPSP_1897: 75288 rows, 29890 columns, 251703 nonzeros

CPU model: Intel(R) Xeon(R) Gold 6130 CPU @ 2.10GHz, instruction set [SSE2|AVX|AVX2|AVX512]
Thread count: 32 physical cores, 32 logical processors, using up to 32 threads

Optimize a model with 75288 rows, 29890 columns and 251703 nonzeros
Model fingerprint: 0x5ea905a5
Variable types: 122 continuous, 29768 integer (29768 binary)
Coefficient statistics:
  Matrix range     [1e+00, 6e+02]
  Objective range  [1e+00, 1e+00]
  Bounds range     [1e+00, 1e+00]
  RHS range        [1e+00, 7e+02]
Presolve removed 20575 rows and 5636 columns (presolve time = 5s) ...
Presolve removed 20575 rows and 5636 columns (presolve time = 10s) ...
Presolve removed 20575 rows and 5636 columns (presolve time = 15s) ...
Presolve removed 25210 rows and 7166 columns
Presolve time: 16.20s
Presolved: 50078 rows, 22724 columns, 172109 nonzeros
Variable types: 121 continuous, 22603 integer (22603 binary)

Deterministic concurrent LP optimizer: primal and dual simplex (primal and dual model)
Showing first log only...

Root relaxation presolved: 50073 rows, 22729 columns, 172099 nonzeros


Root simplex log...

Iteration    Objective       Primal Inf.    Dual Inf.      Time
       0    1.0723439e+02   5.641625e-02   2.463623e+08     18s
    2547    1.0600000e+02   0.000000e+00   0.000000e+00     19s
    2547    1.0600000e+02   0.000000e+00   0.000000e+00     19s
Concurrent spin time: 0.56s

Solved with dual simplex (primal model)

Root relaxation: objective 1.060000e+02, 6750 iterations, 2.43 seconds (0.19 work units)
Total elapsed time = 24.95s
Total elapsed time = 25.94s

    Nodes    |    Current Node    |     Objective Bounds      |     Work
 Expl Unexpl |  Obj  Depth IntInf | Incumbent    BestBd   Gap | It/Node Time

     0     0  106.00000    0  587          -  106.00000      -     -   31s
     0     0  106.00000    0  621          -  106.00000      -     -   32s
     0     0  107.00000    0 1416          -  107.00000      -     -   70s
     0     0  107.00000    0 1370          -  107.00000      -     -   74s
     0     0  107.00000    0 1418          -  107.00000      -     -   81s
     0     0  107.00000    0 1359          -  107.00000      -     -   83s
     0     0  107.00000    0 1412          -  107.00000      -     -   97s
     0     0  107.00000    0 1366          -  107.00000      -     -   97s
     0     0  109.00000    0 1726          -  109.00000      -     -  151s
     0     0  109.00000    0 1586          -  109.00000      -     -  158s
     0     0  109.00000    0 1581          -  109.00000      -     -  160s
     0     0  109.00000    0 1609          -  109.00000      -     -  180s
     0     0  111.77938    0  308          -  111.77938      -     -  234s
     0     0  111.77938    0  815          -  111.77938      -     -  262s
     0     0  111.77938    0  936          -  111.77938      -     -  267s
     0     0  111.77938    0  883          -  111.77938      -     -  267s
     0     0  111.77938    0  861          -  111.77938      -     -  279s
     0     0  111.77938    0  810          -  111.77938      -     -  279s
     0     0  113.81065    0  428          -  113.81065      -     -  323s
     0     0  113.81065    0  427          -  113.81065      -     -  324s
     0     0  113.81065    0  614          -  113.81065      -     -  347s
     0     0  114.77938    0  873          -  114.77938      -     -  355s
     0     0  114.77938    0  840          -  114.77938      -     -  355s
     0     0  114.77938    0  924          -  114.77938      -     -  366s
     0     0  114.77938    0  938          -  114.77938      -     -  369s
     0     0  114.77938    0  922          -  114.77938      -     -  369s
     0     0  114.77938    0 1051          -  114.77938      -     -  392s
     0     0  114.77938    0 1062          -  114.77938      -     -  396s
     0     0  114.77938    0 1009          -  114.77938      -     -  396s
     0     0  114.77938    0 1004          -  114.77938      -     -  406s
     0     0  114.77938    0 1010          -  114.77938      -     -  407s
     0     0  114.77938    0 1006          -  114.77938      -     -  407s
     0     0  114.77938    0  500          -  114.77938      -     -  448s
     0     0  114.77938    0  484          -  114.77938      -     -  448s
     0     0  114.78498    0  854          -  114.78498      -     -  534s
     0     0  114.78498    0  842          -  114.78498      -     -  534s
     0     0  114.78499    0 1028          -  114.78499      -     -  545s
     0     0  114.78499    0 1027          -  114.78499      -     -  547s
     0     0  114.78499    0  994          -  114.78499      -     -  547s
     0     0  114.79625    0  476          -  114.79625      -     -  568s
     0     0  114.82240    0  677          -  114.82240      -     -  576s
     0     0  114.82240    0  650          -  114.82240      -     -  576s
     0     0  114.82240    0  832          -  114.82240      -     -  582s
     0     0  114.82240    0  991          -  114.82240      -     -  583s
     0     0  114.88752    0  992          -  114.88752      -     -  600s
     0     0  114.88752    0  930          -  114.88752      -     -  604s
     0     0  114.88752    0  886          -  114.88752      -     -  606s
     0     0  114.88752    0  849          -  114.88752      -     -  606s
     0     0  114.89588    0  801          -  114.89588      -     -  621s
     0     0  114.89588    0  931          -  114.89588      -     -  624s
     0     0  114.89588    0  895          -  114.89588      -     -  625s
     0     0  114.89588    0 1065          -  114.89588      -     -  637s
     0     0  114.89588    0 1087          -  114.89588      -     -  641s
     0     0  114.89588    0  920          -  114.89588      -     -  643s
     0     0  114.89588    0  912          -  114.89588      -     -  643s
     0     0  115.01197    0 1210          -  115.01197      -     -  669s
     0     0  115.53263    0 1255          -  115.53263      -     -  671s
     0     0  115.53263    0 1224          -  115.53263      -     -  672s
     0     0  115.53263    0 1205          -  115.53263      -     -  688s
     0     0  115.53263    0 1137          -  115.53263      -     -  690s
     0     0  115.53263    0 1042          -  115.53263      -     -  692s
     0     0  115.53263    0 1079          -  115.53263      -     -  695s
     0     0  115.53263    0 1142          -  115.53263      -     -  697s
     0     0  115.53263    0 1065          -  115.53263      -     -  698s
     0     0  115.60168    0 1221          -  115.60168      -     -  708s
     0     0  115.60168    0 1215          -  115.60168      -     -  709s
     0     0  115.60168    0 1306          -  115.60168      -     -  718s
     0     0  115.60168    0 1295          -  115.60168      -     -  718s
     0     0  115.60953    0 1273          -  115.60953      -     -  731s
     0     0  115.60953    0 1300          -  115.60953      -     -  733s
     0     0  115.60953    0 1293          -  115.60953      -     -  746s
     0     0  115.60953    0 1256          -  115.60953      -     -  750s
     0     0  115.60953    0 1184          -  115.60953      -     -  750s
     0     0  115.60953    0 1275          -  115.60953      -     -  763s
     0     0  115.60953    0 1322          -  115.60953      -     -  767s
     0     0  115.60953    0 1312          -  115.60953      -     -  769s
     0     0  115.60953    0 1359          -  115.60953      -     -  773s
     0     0  115.60953    0 1219          -  115.60953      -     -  776s
     0     0  115.60953    0 1206          -  115.60953      -     -  776s
     0     0  115.60953    0 1194          -  115.60953      -     -  791s
     0     0  115.60953    0 1037          -  115.60953      -     -  792s
     0     0  115.60953    0  431          -  115.60953      -     -  824s
     0     0  115.60953    0  793          -  115.60953      -     -  830s
     0     0  115.60967    0  537          -  115.60967      -     -  853s
     0     0  115.60967    0  534          -  115.60967      -     -  853s
     0     0  115.60967    0  881          -  115.60967      -     -  860s
     0     0  115.60967    0  806          -  115.60967      -     -  860s
     0     0  115.60967    0  995          -  115.60967      -     -  870s
     0     0  115.60967    0  963          -  115.60967      -     -  870s
     0     0  115.60967    0  374          -  115.60967      -     -  898s
     0     2  115.60967    0  264          -  115.60967      -     -  951s
     1     5  115.68822    1  247          -  115.68822      -  3427  967s
     3     7  117.19418    2  436          -  117.19418      -  1515 1007s
     7    14  117.96778    3  898          -  117.96778      -   912 1233s
    14    27  117.96778    4  871          -  117.96778      -  1340 1307s
    28    50  117.96778    5 1076          -  117.96778      -  1140 1549s
    29    50  124.77938    5 1020          -  117.96778      -  1183 1552s
    51    50  134.81093    5  904          -  117.96778      -  1270 1591s
    55    75  117.98238    6 1108          -  117.96778      -  1315 1881s
    59    75  122.96778    6 1178          -  117.96778      -  1381 1885s
    86    75  124.77938    6 1198          -  117.96778      -  1520 1890s
    87    99  120.80407    7 1095          -  117.96778      -  1521 2075s
   119   123  121.36754    8 1024          -  117.96778      -  1464 2115s
   151   150  122.35294    9 1015          -  117.96778      -  1260 2159s
   153   150  124.88733    9  998          -  117.96778      -  1251 2161s
   183   179  124.00000   10  729          -  117.96778      -  1121 2202s
   227   219  124.00000   11  731          -  117.96778      -   977 2301s
   276   257  124.00000   12  740          -  117.96778      -   864 2368s
   315   298  124.00000   13  740          -  117.96778      -   840 2383s
   366   353  124.00000   15  738          -  117.96778      -   746 2421s
   439   422  124.98621   17  820          -  117.96778      -   651 2497s
   515   496  125.96723   17  917          -  117.96778      -   574 2588s
   595   582  126.98621   18  830          -  117.96778      -   515 2636s
   682   670  126.98621   22  826          -  117.96778      -   467 2750s
   785   774  126.98621   23  812          -  117.96778      -   421 2811s
   892   888  126.98621   25  874          -  117.96778      -   384 2888s
  1008  1009  126.98621   26  872          -  117.96778      -   349 2972s
  1130  1113  126.98621   29  809          -  117.96778      -   320 3097s
  1243  1240  126.98621   32  815          -  117.96778      -   300 3187s
  1380  1365  126.98621   35  854          -  117.96778      -   277 3535s
  1515  1491  126.98621   38  840          -  117.96778      -   260 3653s

Cutting planes:
  Learned: 7
  Gomory: 21
  Lift-and-project: 2
  Cover: 228
  Implied bound: 141
  Clique: 22
  MIR: 2586
  StrongCG: 39
  Inf proof: 3
  Zero half: 6
  RLT: 1086
  Relax-and-lift: 112

Explored 1655 nodes (594942 simplex iterations) in 3693.76 seconds (139.57 work units)
Thread count was 32 (of 32 available processors)

Solution count 0

Time limit reached
Best objective -, best bound 1.179677821892e+02, gap -

Unable to retrieve attribute 'X'

